56
733 763 1012 730 869 728 927 826 886 776 936 759 833 877 1020 615 963 837 857 1047 815 836 884 858 861 810 835 1024 955 668 971 764 889 803 1050 894 890 873 889 850 958 651 810 959 833 979 774 750 722 1002 864 831 883 916 895 874 
13528
392 347 569 780 675 221 418 529 429 130 526 549 570 820 778 690 199 275 257 715 391 493 738 198 460 606 81 352 840 55 856 384 673 313 388 537 990 955 101 713 238 600 674 949 505 475 2 621 888 60 680 229 513 498 47 912